\ENCODING=ISO-8859-1
\Problem name: ilog.cplex

Minimize
 obj: x1 + x2 + x3 + x4 + x5 + x6 + x7
Subject To
 c1:  x1 + x15 + x16 + x17 + x18 + x19 + x20 + x21 + x22 + x23 + x24 + x25
      + x26 + x27 + x28 + x29 + x30 + x31 + x32 + x33 + x34 + x35 + x36 + x37
      + x38 + x39 + x40 + x41 + x42 + x43 + x44 + x45 + x46 + x47 + x48 + x49
      + x50 + x51 + x52 + x53 + x54 + x55 + x56 + x57 + x58 + x59 + x60 + x61
      + x62 + x63 + x64 + x65 + x66 + x67 + x68 + x69 + x70 + x71 + x72 + x73
      + x74 + x75 + x76 + x77 + x78 + x79 + x80 + x81 + x82 + x83 + x84 + x85
      + x86 + x87 + x88 + x89 + x90 + x91 + x92 + x93 + x94 + x95 + x96 + x97
      + x98 + x99 + x100 + x101 + x102 + x103 + x104 + x105 + x106 + x107
      + x108 + x109 + x110 + x111 + x112 + x113 + x114 + x115 + x116 + x117
      + x118 + x119 + x120 + x121 + x122 + x123 + x124 + x125 + x126 + x127
      + x128 + x129 + x130 + x131 + x132 + x133 + x134 + x135 + x136 + x137
      + x138 + x139 + x140 + x141 + x142 + x143 + x144 + x145 + x146  = 1
 c3:  x2 + x15 + x16 + x19 + x20 + x24 + x25 + x26 + x27 + x29 + x30 + x32
      + x33 + x34 + x35 + x36 + x39 + x43 + x44 + x45 + x46 + x47 + x49 + x50
      + x52 + x53 + x55 + x56 + x57 + x58 + x61 + x62 + x64 + x68 + x69 + x72
      + x75 + x76 + x77 + x78 + x80 + x82 + x83 + x84 + x85 + x86 + x87 + x88
      + x89 + x93 + x94 + x95 + x97 + x98 + x99 + x100 + x101 + x103 + x108
      + x110 + x111 + x112 + x113 + x114 + x115 + x118 + x119 + x120 + x121
      + x123 + x124 + x125 + x127 + x128 + x130 + x131 + x133 + x134 + x135
      + x136 + x140 + x143 + x144 + x145 + x279 + x280 + x281 + x282 + x283
      + x284 + x285 + x286 + x287 + x288 + x289 + x290  = 1
 c5:  x3 + x15 + x16 + x17 + x18 + x19 + x21 + x22 + x23 + x24 + x25 + x27
      + x30 + x32 + x34 + x35 + x36 + x41 + x42 + x43 + x44 + x46 + x48 + x49
      + x50 + x56 + x57 + x59 + x60 + x63 + x65 + x66 + x67 + x71 + x75 + x76
      + x78 + x81 + x92 + x97 + x99 + x106 + x107 + x112 + x116 + x118 + x125
      + x126 + x130 + x131 + x132 + x134 + x137 + x142 + x281 + x285 + x286
      + x287 + x288 + x291 + x292 + x293 + x294 + x295 + x296 + x297 + x298
      + x299 + x300 + x301 + x302 + x303  = 1
 c7:  x4 + x16 + x17 + x19 + x21 + x22 + x23 + x25 + x29 + x31 + x33 + x34
      + x38 + x40 + x41 + x47 + x49 + x50 + x51 + x53 + x54 + x55 + x58 + x60
      + x61 + x62 + x64 + x66 + x67 + x70 + x72 + x73 + x74 + x82 + x85 + x86
      + x88 + x90 + x93 + x94 + x96 + x98 + x101 + x102 + x103 + x105 + x106
      + x109 + x111 + x115 + x117 + x119 + x120 + x122 + x128 + x132 + x136
      + x138 + x139 + x140 + x141 + x143 + x144 + x145 + x279 + x281 + x282
      + x283 + x285 + x286 + x290 + x291 + x292 + x294 + x296 + x298 + x299
      + x300 + x301 + x317 + x318 + x319 + x320 + x321 + x322 + x323  = 1
 c9:  x5 + x18 + x22 + x23 + x28 + x31 + x32 + x33 + x36 + x41 + x43 + x44
      + x54 + x58 + x62 + x63 + x65 + x68 + x69 + x71 + x72 + x74 + x77 + x81
      + x85 + x88 + x90 + x100 + x102 + x107 + x110 + x114 + x117 + x126 + x133
      + x135 + x139 + x146 + x296 + x297 + x317 + x319 + x321 + x322 + x331
       = 1
 c11: x6 + x20 + x28 + x37 + x38 + x39 + x45 + x48 + x73 + x79 + x91 + x95
      + x104 + x129 + x279 + x280 + x283 + x284 + x289 + x295 + x318 + x319
      + x331 + x333 + x334 + x335 + x336 + x337 + x338 + x339  = 1
 c13: x7 + x17 + x26 + x27 + x47 + x51 + x53 + x54 + x56 + x59 + x64 + x68
      + x82 + x83 + x84 + x87 + x89 + x90 + x92 + x96 + x101 + x109 + x111
      + x116 + x117 + x120 + x121 + x124 + x137 + x142 + x146 + x282 + x287
      + x290 + x291 + x292 + x293 + x294 + x298 + x299 + x300 + x301 + x302
      + x303 + x317 + x318 + x320 + x322 + x323 + x334 + x336 + x338  = 1
 c15: x15 + x16 + x17 + x18 + x19 + x20 + x21 + x22 + x23 + x24 + x25 + x26
      + x27 + x28 + x29 + x30 + x31 + x32 + x33 + x34 + x35 + x36 + x37 + x38
      + x39 + x40 + x41 + x42 + x43 + x44 + x45 + x46 + x47 + x48 + x49 + x50
      + x51 + x52 + x53 + x54 + x55 + x56 + x279 + x280 + x281 + x291 + x292
      + x293 + x294 + x295 + x296 + x297 + x317 + x318 + x331 + x333 + x334
      <= 1
 c17: x57 + x58 + x59 + x60 + x61 + x62 + x63 + x64 + x65 + x66 + x67 + x68
      + x69 + x70 + x71 + x72 + x73 + x74 + x75 + x76 + x77 + x78 + x79 + x80
      + x81 + x82 + x83 + x84 + x85 + x86 + x87 + x88 + x89 + x90 + x91 + x92
      + x93 + x94 + x95 + x96 + x97 + x282 + x283 + x284 + x285 + x298 + x299
      + x319 + x320 + x335 + x336 <= 1
 c19: x98 + x99 + x100 + x101 + x102 + x103 + x104 + x105 + x106 + x107 + x108
      + x109 + x110 + x111 + x112 + x113 + x114 + x115 + x116 + x117 + x118
      + x119 + x120 + x121 + x122 + x123 + x286 + x287 + x300 + x301 + x321
      + x337 + x338 <= 1
 c21: x124 + x125 + x126 + x127 + x128 + x129 + x130 + x131 + x132 + x133
      + x134 + x135 + x136 + x137 + x138 + x139 + x140 + x141 + x142 + x143
      + x144 + x145 + x146 + x288 + x289 + x290 + x302 + x303 + x322 + x323
      + x339 <= 1
Bounds
 0 <= x1 <= 1
 0 <= x2 <= 1
 0 <= x3 <= 1
 0 <= x4 <= 1
 0 <= x5 <= 1
 0 <= x6 <= 1
 0 <= x7 <= 1
 0 <= x15 <= 1
 0 <= x16 <= 1
 0 <= x17 <= 1
 0 <= x18 <= 1
 0 <= x19 <= 1
 0 <= x20 <= 1
 0 <= x21 <= 1
 0 <= x22 <= 1
 0 <= x23 <= 1
 0 <= x24 <= 1
 0 <= x25 <= 1
 0 <= x26 <= 1
 0 <= x27 <= 1
 0 <= x28 <= 1
 0 <= x29 <= 1
 0 <= x30 <= 1
 0 <= x31 <= 1
 0 <= x32 <= 1
 0 <= x33 <= 1
 0 <= x34 <= 1
 0 <= x35 <= 1
 0 <= x36 <= 1
 0 <= x37 <= 1
 0 <= x38 <= 1
 0 <= x39 <= 1
 0 <= x40 <= 1
 0 <= x41 <= 1
 0 <= x42 <= 1
 0 <= x43 <= 1
 0 <= x44 <= 1
 0 <= x45 <= 1
 0 <= x46 <= 1
 0 <= x47 <= 1
 0 <= x48 <= 1
 0 <= x49 <= 1
 0 <= x50 <= 1
 0 <= x51 <= 1
 0 <= x52 <= 1
 0 <= x53 <= 1
 0 <= x54 <= 1
 0 <= x55 <= 1
 0 <= x56 <= 1
 0 <= x57 <= 1
 0 <= x58 <= 1
 0 <= x59 <= 1
 0 <= x60 <= 1
 0 <= x61 <= 1
 0 <= x62 <= 1
 0 <= x63 <= 1
 0 <= x64 <= 1
 0 <= x65 <= 1
 0 <= x66 <= 1
 0 <= x67 <= 1
 0 <= x68 <= 1
 0 <= x69 <= 1
 0 <= x70 <= 1
 0 <= x71 <= 1
 0 <= x72 <= 1
 0 <= x73 <= 1
 0 <= x74 <= 1
 0 <= x75 <= 1
 0 <= x76 <= 1
 0 <= x77 <= 1
 0 <= x78 <= 1
 0 <= x79 <= 1
 0 <= x80 <= 1
 0 <= x81 <= 1
 0 <= x82 <= 1
 0 <= x83 <= 1
 0 <= x84 <= 1
 0 <= x85 <= 1
 0 <= x86 <= 1
 0 <= x87 <= 1
 0 <= x88 <= 1
 0 <= x89 <= 1
 0 <= x90 <= 1
 0 <= x91 <= 1
 0 <= x92 <= 1
 0 <= x93 <= 1
 0 <= x94 <= 1
 0 <= x95 <= 1
 0 <= x96 <= 1
 0 <= x97 <= 1
 0 <= x98 <= 1
 0 <= x99 <= 1
 0 <= x100 <= 1
 0 <= x101 <= 1
 0 <= x102 <= 1
 0 <= x103 <= 1
 0 <= x104 <= 1
 0 <= x105 <= 1
 0 <= x106 <= 1
 0 <= x107 <= 1
 0 <= x108 <= 1
 0 <= x109 <= 1
 0 <= x110 <= 1
 0 <= x111 <= 1
 0 <= x112 <= 1
 0 <= x113 <= 1
 0 <= x114 <= 1
 0 <= x115 <= 1
 0 <= x116 <= 1
 0 <= x117 <= 1
 0 <= x118 <= 1
 0 <= x119 <= 1
 0 <= x120 <= 1
 0 <= x121 <= 1
 0 <= x122 <= 1
 0 <= x123 <= 1
 0 <= x124 <= 1
 0 <= x125 <= 1
 0 <= x126 <= 1
 0 <= x127 <= 1
 0 <= x128 <= 1
 0 <= x129 <= 1
 0 <= x130 <= 1
 0 <= x131 <= 1
 0 <= x132 <= 1
 0 <= x133 <= 1
 0 <= x134 <= 1
 0 <= x135 <= 1
 0 <= x136 <= 1
 0 <= x137 <= 1
 0 <= x138 <= 1
 0 <= x139 <= 1
 0 <= x140 <= 1
 0 <= x141 <= 1
 0 <= x142 <= 1
 0 <= x143 <= 1
 0 <= x144 <= 1
 0 <= x145 <= 1
 0 <= x146 <= 1
 0 <= x279 <= 1
 0 <= x280 <= 1
 0 <= x281 <= 1
 0 <= x282 <= 1
 0 <= x283 <= 1
 0 <= x284 <= 1
 0 <= x285 <= 1
 0 <= x286 <= 1
 0 <= x287 <= 1
 0 <= x288 <= 1
 0 <= x289 <= 1
 0 <= x290 <= 1
 0 <= x291 <= 1
 0 <= x292 <= 1
 0 <= x293 <= 1
 0 <= x294 <= 1
 0 <= x295 <= 1
 0 <= x296 <= 1
 0 <= x297 <= 1
 0 <= x298 <= 1
 0 <= x299 <= 1
 0 <= x300 <= 1
 0 <= x301 <= 1
 0 <= x302 <= 1
 0 <= x303 <= 1
 0 <= x317 <= 1
 0 <= x318 <= 1
 0 <= x319 <= 1
 0 <= x320 <= 1
 0 <= x321 <= 1
 0 <= x322 <= 1
 0 <= x323 <= 1
 0 <= x331 <= 1
 0 <= x333 <= 1
 0 <= x334 <= 1
 0 <= x335 <= 1
 0 <= x336 <= 1
 0 <= x337 <= 1
 0 <= x338 <= 1
 0 <= x339 <= 1
Binaries
 x1  x2  x3  x4  x5  x6  x7  x15  x16  x17  x18  x19  x20  x21  x22  x23  x24 
 x25  x26  x27  x28  x29  x30  x31  x32  x33  x34  x35  x36  x37  x38  x39 
 x40  x41  x42  x43  x44  x45  x46  x47  x48  x49  x50  x51  x52  x53  x54 
 x55  x56  x57  x58  x59  x60  x61  x62  x63  x64  x65  x66  x67  x68  x69 
 x70  x71  x72  x73  x74  x75  x76  x77  x78  x79  x80  x81  x82  x83  x84 
 x85  x86  x87  x88  x89  x90  x91  x92  x93  x94  x95  x96  x97  x98  x99 
 x100  x101  x102  x103  x104  x105  x106  x107  x108  x109  x110  x111  x112 
 x113  x114  x115  x116  x117  x118  x119  x120  x121  x122  x123  x124  x125 
 x126  x127  x128  x129  x130  x131  x132  x133  x134  x135  x136  x137  x138 
 x139  x140  x141  x142  x143  x144  x145  x146  x279  x280  x281  x282  x283 
 x284  x285  x286  x287  x288  x289  x290  x291  x292  x293  x294  x295  x296 
 x297  x298  x299  x300  x301  x302  x303  x317  x318  x319  x320  x321  x322 
 x323  x331  x333  x334  x335  x336  x337  x338  x339 
End
